 N 
 1.0000000000000000
     6.2176148800000002    0.0000000000000000    0.0000000000000000
    -0.0013938600000000   12.4901183200000006    0.0000000000000000
    -3.1869513600000001   -0.0003553700000000   23.6253182300000013
 N  
   2
Cartesian
  1.4254351000000001  6.0115311199999999 12.3900652400000002
  0.3334351000000000  6.0115311199999999 12.3900652400000002
